
n_res = 8;
rcap = [29, 26, 26, 31, 1775, 1677, 1691, 1687];
rtype = [1, 1, 1, 1, 2, 2, 2, 2];
n_tasks = 100;
modes =  [{1, 2, 3}, {4, 5, 6}, {7, 8, 9}, {10, 11, 12}, {13, 14, 15}, {16, 17, 18}, {19, 20, 21}, {22, 23, 24}, {25, 26, 27}, {28, 29, 30}, {31, 32, 33}, {34, 35, 36}, {37, 38, 39}, {40, 41, 42}, {43, 44, 45}, {46, 47, 48}, {49, 50, 51}, {52, 53, 54}, {55, 56, 57}, {58, 59, 60}, {61, 62, 63}, {64, 65, 66}, {67, 68, 69}, {70, 71, 72}, {73, 74, 75}, {76, 77, 78}, {79, 80, 81}, {82, 83, 84}, {85, 86, 87}, {88, 89, 90}, {91, 92, 93}, {94, 95, 96}, {97, 98, 99}, {100, 101, 102}, {103, 104, 105}, {106, 107, 108}, {109, 110, 111}, {112, 113, 114}, {115, 116, 117}, {118, 119, 120}, {121, 122, 123}, {124, 125, 126}, {127, 128, 129}, {130, 131, 132}, {133, 134, 135}, {136, 137, 138}, {139, 140, 141}, {142, 143, 144}, {145, 146, 147}, {148, 149, 150}, {151, 152, 153}, {154, 155, 156}, {157, 158, 159}, {160, 161, 162}, {163, 164, 165}, {166, 167, 168}, {169, 170, 171}, {172, 173, 174}, {175, 176, 177}, {178, 179, 180}, {181, 182, 183}, {184, 185, 186}, {187, 188, 189}, {190, 191, 192}, {193, 194, 195}, {196, 197, 198}, {199, 200, 201}, {202, 203, 204}, {205, 206, 207}, {208, 209, 210}, {211, 212, 213}, {214, 215, 216}, {217, 218, 219}, {220, 221, 222}, {223, 224, 225}, {226, 227, 228}, {229, 230, 231}, {232, 233, 234}, {235, 236, 237}, {238, 239, 240}, {241, 242, 243}, {244, 245, 246}, {247, 248, 249}, {250, 251, 252}, {253, 254, 255}, {256, 257, 258}, {259, 260, 261}, {262, 263, 264}, {265, 266, 267}, {268, 269, 270}, {271, 272, 273}, {274, 275, 276}, {277, 278, 279}, {280, 281, 282}, {283, 284, 285}, {286, 287, 288}, {289, 290, 291}, {292, 293, 294}, {295, 296, 297}, {298, 299, 300}];
succ =  [{100, 96, 92, 85, 68, 66, 63, 62, 61, 56, 51, 50, 47, 40, 39, 35, 31, 30, 29}, {99, 97, 95, 93, 91, 88, 68, 67, 66, 63, 62, 60, 59, 58, 57, 56, 55, 53, 52, 51, 46, 43, 40, 31}, {94, 42, 41, 40, 35, 27, 10}, {99, 97, 83, 66, 62, 56, 53, 49, 47, 45, 40, 29, 21}, {100, 97, 66, 63, 58, 53, 52, 47, 45, 41, 29, 21}, {99, 98, 97, 94, 83, 67, 66, 65, 63, 62, 59, 57, 53, 40, 21}, {99, 98, 97, 95, 91, 90, 68, 67, 66, 64, 61, 54, 52, 51, 45, 41, 37, 29}, {100, 98, 96, 95, 94, 93, 91, 89, 88, 87, 83, 65, 62, 61, 60, 54, 53, 51, 48, 44, 40, 39}, {97, 94, 93, 88, 85, 68, 66, 65, 62, 61, 60, 54, 53, 52, 46, 40, 31}, {99, 98, 97, 93, 91, 90, 89, 86, 84, 81, 77, 66, 65, 64, 62, 61, 60, 55, 53, 52, 51, 46, 44}, {100, 97, 95, 91, 89, 88, 87, 86, 85, 81, 78, 67, 65, 64, 63, 61, 58, 57, 55, 54, 53, 52, 48}, {95, 94, 91, 83, 68, 67, 66, 65, 62, 53, 51, 49, 46, 45, 44, 40}, {96, 93, 92, 89, 85, 84, 83, 67, 66, 64, 61, 60, 56, 51, 48, 47, 35}, {98, 93, 90, 89, 88, 87, 86, 85, 84, 67, 66, 65, 64, 62, 60, 58, 55, 54, 51, 50, 48}, {96, 95, 89, 87, 81, 65, 64, 61, 59, 55, 53, 51, 49, 38}, {97, 96, 95, 93, 92, 91, 89, 83, 82, 81, 80, 71, 68, 65, 61, 54, 46, 45, 44}, {99, 94, 92, 91, 89, 88, 87, 83, 82, 81, 80, 79, 78, 68, 67, 66, 64, 54, 45, 44}, {98, 95, 94, 93, 92, 90, 89, 83, 82, 81, 80, 79, 70, 67, 66, 46, 45, 44}, {94, 93, 92, 89, 83, 81, 65, 64, 62, 60, 46, 44, 35}, {95, 92, 91, 90, 89, 88, 87, 85, 83, 81, 79, 78, 76, 62, 45, 39}, {96, 95, 91, 90, 89, 88, 87, 84, 82, 81, 80, 77, 74, 70, 64, 61, 60, 51, 44}, {99, 93, 90, 89, 88, 87, 85, 84, 83, 81, 77, 72, 66, 62, 60, 52, 47}, {98, 88, 86, 84, 83, 82, 81, 80, 78, 77, 71, 68, 62, 61, 53, 44}, {99, 93, 88, 83, 82, 81, 80, 79, 78, 72, 65, 64, 63, 54, 45}, {99, 96, 94, 93, 92, 88, 87, 83, 81, 78, 75, 74, 71, 70, 45, 44}, {94, 91, 87, 84, 83, 81, 80, 78, 77, 76, 73, 70, 69, 64, 62, 61}, {98, 97, 89, 87, 85, 83, 82, 81, 80, 78, 75, 74, 72, 70, 45}, {96, 88, 84, 82, 81, 77, 75, 74, 71, 60, 55, 44}, {94, 93, 89, 88, 86, 84, 82, 81, 79, 75, 73, 72, 71, 69, 65}, {98, 94, 93, 91, 84, 82, 81, 78, 74, 72, 70, 67, 60}, {89, 83, 82, 80, 78, 75, 74, 72, 71, 70, 45}, {97, 91, 88, 87, 84, 83, 79, 78, 71, 70, 44}, {95, 90, 88, 83, 81, 77, 75, 69, 61, 52}, {98, 93, 90, 84, 81, 78, 77, 70, 67, 66, 65}, {90, 87, 86, 82, 80, 79, 77, 76, 74, 73, 72, 70, 69}, {91, 87, 85, 84, 83, 79, 76, 75, 72, 70, 69, 64}, {96, 88, 85, 81, 80, 79, 78, 76, 75, 74, 73, 70}, {85, 84, 82, 78, 76, 72, 71, 60}, {86, 74, 73, 72, 69, 52}, {90, 82, 81, 78, 73, 69, 64}, {83, 70, 44}, {89, 80, 76, 75, 74, 70, 69}, {79, 78, 77, 73, 71, 65}, {85, 76, 73, 72, 69}, {86, 84, 77, 73, 69}, {87, 78, 74, 72, 69}, {91, 79, 75, 71, 70}, {80, 77, 76, 72, 70}, {88, 76, 75, 74, 70}, {95, 76, 74, 71, 69}, {79, 78, 73, 72}, {82, 80, 71, 70}, {92, 75, 74, 70}, {75, 74, 70, 69}, {83, 80, 70, 69}, {94, 81, 74, 71}, {79, 77, 72, 69}, {73, 71, 69}, {90, 86, 77}, {73, 69}, {79, 72}, {75, 74}, {75, 69}, {71}, {76}, {75}, {71}, {70}, {}, {}, {}, {}, {}, {}, {}, {}, {}, {}, {}, {}, {}, {}, {}, {}, {}, {}, {}, {}, {}, {}, {}, {}, {}, {}, {}, {}, {}, {}, {}, {}];
n_opt = 300;
dur = [15, 19, 21, 9, 19, 22, 14, 24, 26, 10, 22, 29, 10, 28, 30, 2, 26, 28, 9, 13, 16, 7, 9, 10, 8, 13, 24, 5, 14, 23, 9, 21, 23, 2, 15, 19, 3, 7, 23, 6, 9, 19, 8, 19, 24, 14, 22, 23, 5, 25, 29, 5, 6, 19, 2, 7, 26, 12, 16, 22, 1, 12, 20, 2, 8, 18, 24, 28, 29, 7, 8, 21, 1, 25, 30, 2, 3, 24, 3, 6, 26, 7, 10, 22, 7, 12, 28, 19, 26, 29, 5, 27, 30, 12, 15, 30, 7, 11, 26, 12, 15, 26, 1, 2, 9, 4, 8, 30, 24, 27, 29, 12, 23, 29, 19, 20, 21, 8, 9, 17, 3, 9, 21, 1, 14, 22, 4, 14, 17, 13, 20, 27, 5, 15, 30, 11, 12, 14, 11, 19, 20, 3, 8, 24, 4, 19, 22, 6, 7, 22, 6, 21, 28, 2, 11, 20, 12, 13, 21, 3, 18, 26, 4, 6, 20, 14, 21, 27, 1, 4, 28, 5, 8, 16, 2, 9, 23, 5, 16, 30, 1, 4, 14, 2, 19, 28, 6, 14, 15, 13, 23, 24, 3, 6, 25, 4, 10, 28, 5, 20, 24, 17, 26, 30, 4, 23, 26, 11, 14, 19, 7, 8, 29, 5, 11, 17, 9, 24, 29, 2, 6, 15, 10, 11, 12, 15, 18, 21, 2, 18, 22, 1, 2, 25, 16, 17, 27, 8, 9, 19, 7, 19, 24, 2, 15, 19, 17, 18, 27, 8, 12, 21, 5, 11, 27, 1, 5, 22, 18, 26, 28, 4, 11, 28, 17, 23, 26, 20, 21, 24, 17, 29, 30, 7, 16, 23, 3, 16, 21, 5, 11, 18, 11, 13, 14, 12, 19, 22, 12, 20, 26, 12, 13, 25, 10, 21, 23, 10, 11, 17];
rreq = [|2, 1, 1, 2, 1, 1, 4, 4, 2, 4, 3, 2, 3, 2, 2, 3, 3, 3, 4, 4, 2, 5, 4, 3, 4, 4, 4, 5, 3, 1, 2, 2, 2, 5, 4, 3, 4, 3, 1, 4, 4, 3, 4, 4, 3, 4, 4, 4, 5, 3, 3, 3, 1, 1, 1, 1, 1, 4, 2, 1, 3, 3, 3, 4, 2, 2, 4, 3, 3, 3, 3, 3, 4, 4, 4, 4, 3, 2, 2, 1, 1, 5, 4, 3, 1, 1, 1, 1, 1, 1, 3, 1, 1, 4, 2, 1, 3, 2, 2, 3, 3, 2, 2, 2, 2, 2, 2, 2, 4, 2, 2, 3, 3, 3, 3, 3, 2, 2, 1, 1, 3, 2, 2, 3, 3, 1, 3, 2, 2, 4, 3, 3, 5, 4, 4, 4, 3, 3, 1, 1, 1, 4, 4, 4, 5, 5, 5, 4, 3, 3, 5, 5, 5, 4, 4, 4, 3, 2, 2, 4, 4, 4, 4, 4, 4, 3, 3, 3, 3, 3, 3, 3, 2, 2, 3, 3, 2, 4, 3, 3, 4, 3, 3, 3, 2, 1, 4, 4, 4, 4, 4, 4, 4, 2, 2, 4, 4, 2, 5, 4, 4, 2, 2, 2, 4, 4, 4, 3, 3, 3, 4, 4, 4, 4, 3, 3, 3, 3, 3, 3, 3, 3, 2, 2, 2, 4, 4, 4, 5, 2, 1, 5, 5, 5, 3, 3, 2, 3, 2, 2, 3, 2, 1, 3, 3, 3, 3, 3, 3, 4, 3, 2, 3, 2, 2, 4, 3, 3, 4, 3, 3, 2, 2, 2, 2, 1, 1, 2, 1, 1, 2, 1, 1, 4, 3, 2, 2, 2, 2, 3, 2, 2, 4, 4, 2, 4, 4, 4, 5, 4, 3, 1, 1, 1, 5, 4, 4, 3, 2, 2
 |2, 1, 1, 3, 2, 1, 4, 4, 4, 4, 4, 3, 2, 2, 2, 4, 2, 1, 5, 5, 5, 3, 2, 2, 3, 3, 2, 3, 2, 2, 3, 2, 2, 1, 1, 1, 5, 3, 2, 3, 3, 3, 4, 4, 4, 4, 3, 3, 1, 1, 1, 2, 2, 2, 2, 2, 2, 2, 2, 2, 5, 5, 5, 4, 4, 3, 2, 2, 2, 5, 5, 5, 4, 4, 4, 4, 2, 2, 5, 4, 3, 3, 3, 3, 1, 1, 1, 4, 2, 2, 3, 3, 3, 2, 2, 2, 1, 1, 1, 3, 2, 2, 4, 2, 1, 4, 3, 3, 3, 2, 2, 3, 2, 2, 5, 4, 3, 5, 4, 4, 3, 2, 1, 5, 4, 4, 4, 4, 3, 1, 1, 1, 5, 2, 2, 3, 2, 2, 4, 3, 2, 5, 5, 5, 4, 2, 2, 2, 2, 2, 5, 3, 3, 4, 3, 3, 1, 1, 1, 4, 3, 1, 2, 2, 2, 3, 2, 2, 3, 2, 2, 4, 3, 3, 5, 3, 3, 4, 2, 2, 5, 5, 5, 3, 3, 3, 5, 3, 3, 1, 1, 1, 2, 1, 1, 2, 1, 1, 2, 1, 1, 3, 3, 1, 3, 3, 2, 5, 5, 5, 4, 3, 3, 3, 3, 3, 5, 4, 3, 4, 4, 3, 2, 2, 2, 4, 2, 2, 4, 4, 3, 3, 2, 1, 2, 2, 2, 5, 3, 3, 2, 2, 2, 4, 3, 2, 1, 1, 1, 3, 2, 1, 3, 2, 2, 1, 1, 1, 4, 3, 3, 4, 3, 1, 1, 1, 1, 3, 2, 2, 2, 1, 1, 4, 3, 3, 3, 3, 2, 1, 1, 1, 2, 2, 2, 4, 4, 4, 3, 3, 3, 4, 3, 3, 4, 4, 3, 4, 4, 2
 |2, 2, 2, 4, 2, 2, 3, 3, 3, 5, 4, 2, 1, 1, 1, 5, 4, 4, 3, 1, 1, 4, 4, 4, 4, 3, 1, 5, 4, 2, 2, 1, 1, 1, 1, 1, 4, 3, 3, 4, 3, 3, 3, 3, 3, 2, 2, 2, 4, 2, 2, 4, 4, 4, 4, 3, 3, 4, 2, 2, 3, 3, 1, 4, 3, 3, 1, 1, 1, 4, 4, 4, 2, 1, 1, 2, 2, 2, 5, 3, 3, 2, 1, 1, 4, 4, 4, 3, 2, 1, 2, 2, 2, 2, 2, 2, 3, 1, 1, 5, 3, 3, 3, 3, 3, 4, 2, 2, 3, 2, 1, 3, 3, 3, 5, 3, 3, 2, 2, 1, 3, 2, 2, 2, 1, 1, 3, 3, 3, 4, 3, 3, 4, 4, 3, 4, 3, 1, 5, 3, 3, 4, 4, 4, 1, 1, 1, 5, 4, 4, 3, 3, 3, 5, 3, 3, 1, 1, 1, 1, 1, 1, 5, 3, 2, 3, 3, 2, 2, 1, 1, 5, 4, 3, 3, 3, 2, 5, 4, 4, 4, 4, 4, 2, 1, 1, 4, 3, 2, 4, 3, 3, 3, 3, 2, 5, 4, 4, 3, 3, 2, 3, 2, 2, 5, 5, 5, 3, 2, 1, 2, 2, 2, 4, 3, 2, 2, 2, 2, 3, 3, 3, 5, 5, 5, 3, 3, 2, 1, 1, 1, 2, 1, 1, 3, 2, 1, 3, 3, 3, 1, 1, 1, 2, 2, 1, 3, 3, 3, 4, 2, 2, 4, 3, 3, 2, 2, 2, 3, 2, 2, 2, 1, 1, 4, 2, 1, 4, 2, 2, 4, 2, 1, 4, 4, 3, 3, 1, 1, 4, 3, 3, 5, 3, 3, 3, 2, 1, 3, 2, 2, 3, 3, 3, 3, 2, 2, 1, 1, 1
 |4, 2, 1, 4, 4, 4, 4, 4, 3, 4, 4, 4, 5, 4, 4, 4, 3, 1, 4, 4, 4, 5, 4, 3, 2, 2, 2, 5, 3, 3, 5, 3, 3, 4, 4, 3, 5, 3, 3, 5, 5, 5, 5, 5, 5, 3, 3, 2, 2, 2, 2, 4, 3, 3, 4, 3, 3, 3, 3, 3, 3, 3, 2, 3, 2, 2, 4, 4, 2, 5, 3, 3, 4, 2, 1, 4, 3, 3, 4, 3, 3, 3, 2, 1, 1, 1, 1, 4, 2, 2, 5, 2, 1, 2, 2, 2, 3, 2, 1, 2, 2, 2, 3, 3, 2, 3, 3, 3, 4, 3, 3, 3, 3, 3, 4, 2, 2, 1, 1, 1, 4, 4, 2, 4, 3, 1, 5, 3, 2, 5, 2, 1, 4, 4, 4, 2, 2, 2, 3, 1, 1, 3, 1, 1, 2, 2, 2, 1, 1, 1, 3, 2, 1, 3, 2, 2, 5, 3, 3, 3, 3, 1, 5, 4, 4, 4, 3, 2, 4, 3, 3, 2, 2, 2, 5, 3, 3, 1, 1, 1, 3, 3, 1, 3, 2, 2, 1, 1, 1, 5, 5, 5, 4, 3, 2, 4, 3, 1, 3, 2, 2, 3, 3, 3, 3, 2, 2, 4, 3, 2, 3, 3, 3, 4, 3, 3, 5, 4, 4, 4, 4, 3, 4, 4, 4, 5, 5, 5, 3, 3, 3, 5, 3, 1, 3, 2, 2, 3, 2, 2, 4, 3, 2, 2, 1, 1, 3, 2, 1, 2, 2, 2, 4, 3, 2, 5, 4, 4, 3, 2, 1, 1, 1, 1, 5, 3, 1, 5, 2, 1, 4, 3, 2, 3, 2, 1, 1, 1, 1, 5, 3, 2, 2, 1, 1, 3, 2, 1, 2, 2, 2, 5, 5, 5, 1, 1, 1, 4, 3, 3
 |15, 9, 8, 23, 19, 17, 28, 23, 23, 17, 15, 14, 17, 14, 14, 7, 7, 6, 25, 23, 22, 28, 26, 26, 26, 22, 15, 8, 6, 5, 21, 10, 10, 14, 11, 4, 21, 19, 11, 24, 19, 15, 20, 18, 10, 3, 2, 2, 18, 14, 13, 18, 14, 8, 15, 15, 3, 16, 13, 9, 14, 7, 2, 5, 4, 4, 28, 23, 23, 24, 21, 20, 28, 15, 5, 5, 5, 3, 14, 12, 7, 26, 21, 19, 13, 12, 5, 13, 12, 12, 8, 6, 4, 3, 2, 2, 10, 8, 8, 25, 21, 18, 10, 6, 4, 14, 14, 14, 25, 15, 14, 20, 15, 13, 16, 10, 4, 26, 25, 25, 20, 16, 12, 26, 24, 24, 30, 27, 21, 20, 14, 10, 20, 20, 17, 23, 18, 16, 29, 25, 21, 14, 14, 11, 15, 15, 13, 13, 13, 13, 27, 25, 25, 25, 23, 21, 8, 8, 8, 29, 27, 25, 17, 12, 10, 16, 15, 15, 22, 14, 9, 24, 24, 24, 26, 17, 8, 23, 22, 20, 28, 27, 27, 8, 5, 2, 25, 24, 19, 20, 20, 18, 23, 19, 18, 21, 18, 9, 25, 19, 18, 21, 13, 8, 25, 25, 23, 21, 18, 17, 20, 10, 10, 24, 22, 20, 20, 19, 15, 18, 17, 14, 4, 2, 2, 21, 14, 5, 14, 11, 11, 21, 16, 10, 25, 24, 24, 30, 26, 22, 25, 19, 15, 19, 14, 12, 16, 15, 12, 20, 10, 2, 15, 11, 5, 17, 13, 11, 13, 12, 12, 23, 23, 22, 19, 16, 13, 18, 16, 13, 20, 11, 3, 23, 12, 9, 20, 20, 20, 21, 14, 14, 24, 24, 22, 24, 24, 22, 24, 23, 21, 5, 4, 4, 21, 18, 13, 29, 22, 16
 |17, 16, 16, 26, 20, 7, 16, 12, 8, 4, 3, 2, 16, 14, 14, 16, 15, 15, 15, 15, 15, 24, 17, 13, 29, 28, 27, 13, 12, 10, 23, 18, 16, 9, 8, 4, 26, 25, 24, 30, 29, 28, 19, 17, 17, 20, 19, 16, 17, 13, 5, 28, 24, 20, 18, 16, 16, 21, 20, 10, 21, 9, 6, 20, 12, 10, 16, 13, 5, 20, 18, 17, 27, 24, 17, 25, 20, 20, 2, 2, 1, 9, 8, 8, 12, 12, 12, 20, 17, 13, 9, 7, 7, 23, 19, 11, 9, 7, 4, 19, 12, 10, 19, 17, 16, 17, 13, 11, 25, 25, 23, 9, 8, 8, 22, 22, 20, 22, 13, 5, 21, 16, 8, 29, 27, 26, 20, 18, 14, 11, 9, 9, 25, 22, 22, 19, 17, 9, 17, 16, 16, 23, 21, 19, 16, 15, 12, 23, 20, 20, 8, 6, 5, 11, 5, 5, 19, 19, 19, 19, 19, 15, 12, 12, 11, 22, 17, 6, 25, 19, 18, 14, 8, 5, 24, 14, 6, 17, 13, 11, 4, 4, 4, 15, 10, 7, 15, 7, 3, 10, 9, 9, 28, 26, 24, 17, 10, 4, 22, 16, 14, 29, 24, 22, 25, 21, 13, 17, 15, 14, 16, 8, 3, 28, 17, 7, 22, 21, 21, 25, 24, 24, 7, 6, 2, 29, 25, 23, 4, 3, 1, 16, 13, 9, 24, 18, 17, 10, 10, 10, 15, 13, 10, 9, 6, 6, 15, 11, 3, 24, 21, 19, 27, 24, 22, 6, 2, 2, 19, 12, 10, 17, 10, 9, 29, 27, 27, 7, 5, 5, 27, 26, 26, 26, 26, 22, 10, 7, 1, 5, 4, 3, 25, 21, 20, 17, 16, 15, 23, 22, 21, 17, 16, 15, 24, 12, 4, 11, 7, 4
 |18, 17, 13, 21, 21, 21, 25, 19, 5, 5, 3, 3, 22, 17, 10, 29, 26, 23, 20, 13, 13, 19, 19, 19, 12, 9, 4, 14, 13, 6, 23, 20, 15, 15, 9, 5, 25, 12, 9, 11, 10, 7, 2, 2, 1, 22, 19, 13, 27, 25, 22, 19, 13, 9, 28, 28, 28, 22, 20, 18, 19, 14, 9, 24, 16, 13, 16, 13, 11, 13, 13, 11, 28, 27, 25, 24, 22, 18, 17, 12, 8, 26, 23, 17, 25, 23, 18, 11, 8, 2, 4, 4, 4, 24, 22, 8, 22, 9, 9, 8, 7, 5, 15, 15, 15, 4, 3, 3, 29, 16, 11, 22, 22, 22, 14, 12, 6, 23, 16, 12, 13, 7, 6, 28, 26, 26, 14, 13, 8, 8, 6, 4, 15, 14, 12, 13, 10, 7, 18, 16, 15, 18, 18, 17, 27, 25, 25, 5, 5, 3, 5, 3, 2, 27, 19, 15, 11, 8, 7, 24, 20, 13, 25, 19, 17, 27, 27, 23, 22, 22, 18, 22, 21, 18, 17, 13, 7, 28, 18, 13, 15, 13, 12, 15, 13, 12, 21, 16, 9, 28, 23, 19, 18, 12, 9, 29, 22, 20, 20, 19, 15, 27, 15, 13, 21, 21, 21, 29, 23, 16, 23, 23, 20, 22, 18, 11, 24, 24, 24, 26, 23, 21, 8, 4, 2, 13, 10, 5, 18, 14, 12, 25, 22, 19, 5, 4, 3, 28, 23, 19, 22, 21, 17, 3, 2, 2, 21, 16, 9, 19, 8, 7, 15, 14, 12, 22, 13, 8, 8, 8, 6, 22, 18, 18, 18, 18, 13, 22, 17, 9, 8, 5, 2, 14, 12, 6, 20, 19, 15, 18, 16, 14, 13, 5, 5, 24, 21, 15, 9, 6, 4, 15, 13, 5, 10, 9, 7, 22, 21, 21
 |15, 14, 12, 11, 6, 4, 22, 14, 10, 24, 22, 11, 27, 17, 11, 13, 10, 4, 24, 20, 2, 27, 27, 26, 19, 17, 14, 18, 11, 6, 10, 10, 10, 21, 18, 17, 16, 14, 13, 28, 25, 23, 23, 20, 18, 24, 13, 11, 23, 23, 23, 7, 5, 3, 15, 8, 5, 21, 21, 21, 28, 17, 13, 14, 12, 10, 6, 4, 4, 28, 25, 15, 27, 16, 12, 14, 13, 13, 24, 22, 20, 18, 16, 13, 24, 24, 22, 10, 7, 5, 28, 26, 24, 18, 15, 12, 26, 24, 21, 16, 9, 7, 17, 13, 11, 23, 23, 23, 14, 9, 9, 9, 6, 2, 16, 16, 3, 15, 5, 3, 24, 19, 16, 13, 11, 5, 21, 14, 11, 3, 3, 3, 11, 8, 2, 14, 8, 5, 10, 6, 6, 24, 21, 11, 22, 20, 12, 26, 13, 10, 19, 15, 8, 7, 6, 2, 24, 22, 20, 24, 16, 14, 14, 14, 14, 16, 12, 3, 14, 12, 11, 24, 16, 4, 19, 15, 15, 20, 13, 11, 18, 17, 15, 22, 20, 7, 28, 25, 20, 27, 25, 21, 12, 10, 8, 20, 17, 16, 20, 19, 12, 22, 16, 9, 22, 17, 17, 17, 13, 9, 23, 13, 7, 24, 20, 16, 4, 3, 3, 25, 21, 12, 17, 17, 17, 10, 9, 8, 22, 21, 13, 18, 17, 15, 20, 19, 18, 23, 19, 11, 13, 13, 11, 25, 19, 17, 3, 2, 2, 24, 15, 8, 29, 28, 28, 8, 7, 6, 13, 7, 1, 24, 21, 14, 13, 7, 3, 13, 8, 2, 27, 11, 7, 23, 17, 10, 11, 10, 10, 21, 20, 20, 20, 17, 11, 29, 23, 19, 23, 22, 21, 25, 24, 24, 5, 3, 3, 12, 10, 9|];